NAME: ./prFile/tspFile/tsp_file64.tsp
COMMENT: TSP file generated by Python
TYPE: TSP
DIMENSION: 40
EDGE_WEIGHT_TYPE: EUC_2D
NODE_COORD_SECTION
1 50 43
2 81 78
3 35 82
4 3 7
5 30 96
6 66 1
7 29 73
8 40 94
9 29 24
10 11 31
11 75 65
12 31 71
13 15 57
14 64 3
15 89 45
16 57 65
17 4 79
18 49 21
19 91 50
20 35 60
21 27 80
22 100 19
23 24 4
24 34 50
25 72 8
26 54 31
27 27 21
28 83 10
29 53 93
30 9 85
31 35 73
32 39 6
33 20 48
34 74 80
35 94 74
36 47 79
37 2 64
38 70 93
39 30 12
40 67 34
EOF
